p cnf 375 1163
1 2 0
-1 -2 0
31 32 0
-31 -32 0
61 62 0
-61 -62 0
91 92 0
-91 -92 0
121 122 0
-121 -122 0
151 152 0
-151 -152 0
3 4 0
-3 -4 0
33 34 0
-33 -34 0
63 64 0
-63 -64 0
93 94 0
-93 -94 0
123 124 0
-123 -124 0
153 154 0
-153 -154 0
5 6 0
-5 -6 0
35 36 0
-35 -36 0
65 66 0
-65 -66 0
95 96 0
-95 -96 0
125 126 0
-125 -126 0
155 156 0
-155 -156 0
7 8 0
-7 -8 0
37 38 0
-37 -38 0
67 68 0
-67 -68 0
97 98 0
-97 -98 0
127 128 0
-127 -128 0
157 158 0
-157 -158 0
9 10 0
-9 -10 0
39 40 0
-39 -40 0
69 70 0
-69 -70 0
99 100 0
-99 -100 0
129 130 0
-129 -130 0
159 160 0
-159 -160 0
11 12 0
-11 -12 0
41 42 0
-41 -42 0
71 72 0
-71 -72 0
101 102 0
-101 -102 0
131 132 0
-131 -132 0
161 162 0
-161 -162 0
13 14 0
-13 -14 0
43 44 0
-43 -44 0
73 74 0
-73 -74 0
103 104 0
-103 -104 0
133 134 0
-133 -134 0
163 164 0
-163 -164 0
15 16 0
-15 -16 0
45 46 0
-45 -46 0
75 76 0
-75 -76 0
105 106 0
-105 -106 0
135 136 0
-135 -136 0
165 166 0
-165 -166 0
17 18 0
-17 -18 0
47 48 0
-47 -48 0
77 78 0
-77 -78 0
107 108 0
-107 -108 0
137 138 0
-137 -138 0
167 168 0
-167 -168 0
19 20 0
-19 -20 0
49 50 0
-49 -50 0
79 80 0
-79 -80 0
109 110 0
-109 -110 0
139 140 0
-139 -140 0
169 170 0
-169 -170 0
21 22 0
-21 -22 0
51 52 0
-51 -52 0
81 82 0
-81 -82 0
111 112 0
-111 -112 0
141 142 0
-141 -142 0
171 172 0
-171 -172 0
23 24 0
-23 -24 0
53 54 0
-53 -54 0
83 84 0
-83 -84 0
113 114 0
-113 -114 0
143 144 0
-143 -144 0
173 174 0
-173 -174 0
25 26 0
-25 -26 0
55 56 0
-55 -56 0
85 86 0
-85 -86 0
115 116 0
-115 -116 0
145 146 0
-145 -146 0
175 176 0
-175 -176 0
27 28 0
-27 -28 0
57 58 0
-57 -58 0
87 88 0
-87 -88 0
117 118 0
-117 -118 0
147 148 0
-147 -148 0
177 178 0
-177 -178 0
29 30 0
-29 -30 0
59 60 0
-59 -60 0
89 90 0
-89 -90 0
119 120 0
-119 -120 0
149 150 0
-149 -150 0
179 180 0
-179 -180 0
-1 -31 4 0
-1 -32 4 0
-2 -31 4 0
-2 -32 3 0
-31 -1 -61 34 0
-31 -2 -61 34 0
-31 -1 -62 34 0
-31 -2 -62 34 0
-32 -1 -61 34 0
-32 -2 -61 34 0
-32 -1 -62 34 0
-32 -2 -62 33 0
-61 -31 -91 64 0
-61 -32 -91 64 0
-61 -31 -92 64 0
-61 -32 -92 64 0
-62 -31 -91 64 0
-62 -32 -91 64 0
-62 -31 -92 64 0
-62 -32 -92 63 0
-91 -61 -121 94 0
-91 -62 -121 94 0
-91 -61 -122 94 0
-91 -62 -122 94 0
-92 -61 -121 94 0
-92 -62 -121 94 0
-92 -61 -122 94 0
-92 -62 -122 93 0
-121 -91 -151 124 0
-121 -92 -151 124 0
-121 -91 -152 124 0
-121 -92 -152 124 0
-122 -91 -151 124 0
-122 -92 -151 124 0
-122 -91 -152 124 0
-122 -92 -152 123 0
-151 -121 154 0
-151 -122 154 0
-152 -121 154 0
-152 -122 153 0
-3 -33 6 0
-3 -34 6 0
-4 -33 6 0
-4 -34 5 0
-33 -3 -63 36 0
-33 -4 -63 36 0
-33 -3 -64 36 0
-33 -4 -64 36 0
-34 -3 -63 36 0
-34 -4 -63 36 0
-34 -3 -64 36 0
-34 -4 -64 35 0
-63 -33 -93 66 0
-63 -34 -93 66 0
-63 -33 -94 66 0
-63 -34 -94 66 0
-64 -33 -93 66 0
-64 -34 -93 66 0
-64 -33 -94 66 0
-64 -34 -94 65 0
-93 -63 -123 96 0
-93 -64 -123 96 0
-93 -63 -124 96 0
-93 -64 -124 96 0
-94 -63 -123 96 0
-94 -64 -123 96 0
-94 -63 -124 96 0
-94 -64 -124 95 0
-123 -93 -153 126 0
-123 -94 -153 126 0
-123 -93 -154 126 0
-123 -94 -154 126 0
-124 -93 -153 126 0
-124 -94 -153 126 0
-124 -93 -154 126 0
-124 -94 -154 125 0
-153 -123 156 0
-153 -124 156 0
-154 -123 156 0
-154 -124 155 0
-5 -35 8 0
-5 -36 8 0
-6 -35 8 0
-6 -36 7 0
-35 -5 -65 38 0
-35 -6 -65 38 0
-35 -5 -66 38 0
-35 -6 -66 38 0
-36 -5 -65 38 0
-36 -6 -65 38 0
-36 -5 -66 38 0
-36 -6 -66 37 0
-65 -35 -95 68 0
-65 -36 -95 68 0
-65 -35 -96 68 0
-65 -36 -96 68 0
-66 -35 -95 68 0
-66 -36 -95 68 0
-66 -35 -96 68 0
-66 -36 -96 67 0
-95 -65 -125 98 0
-95 -66 -125 98 0
-95 -65 -126 98 0
-95 -66 -126 98 0
-96 -65 -125 98 0
-96 -66 -125 98 0
-96 -65 -126 98 0
-96 -66 -126 97 0
-125 -95 -155 128 0
-125 -96 -155 128 0
-125 -95 -156 128 0
-125 -96 -156 128 0
-126 -95 -155 128 0
-126 -96 -155 128 0
-126 -95 -156 128 0
-126 -96 -156 127 0
-155 -125 158 0
-155 -126 158 0
-156 -125 158 0
-156 -126 157 0
-7 -37 10 0
-7 -38 10 0
-8 -37 10 0
-8 -38 9 0
-37 -7 -67 40 0
-37 -8 -67 40 0
-37 -7 -68 40 0
-37 -8 -68 40 0
-38 -7 -67 40 0
-38 -8 -67 40 0
-38 -7 -68 40 0
-38 -8 -68 39 0
-67 -37 -97 70 0
-67 -38 -97 70 0
-67 -37 -98 70 0
-67 -38 -98 70 0
-68 -37 -97 70 0
-68 -38 -97 70 0
-68 -37 -98 70 0
-68 -38 -98 69 0
-97 -67 -127 100 0
-97 -68 -127 100 0
-97 -67 -128 100 0
-97 -68 -128 100 0
-98 -67 -127 100 0
-98 -68 -127 100 0
-98 -67 -128 100 0
-98 -68 -128 99 0
-127 -97 -157 130 0
-127 -98 -157 130 0
-127 -97 -158 130 0
-127 -98 -158 130 0
-128 -97 -157 130 0
-128 -98 -157 130 0
-128 -97 -158 130 0
-128 -98 -158 129 0
-157 -127 160 0
-157 -128 160 0
-158 -127 160 0
-158 -128 159 0
-9 -39 12 0
-9 -40 12 0
-10 -39 12 0
-10 -40 11 0
-39 -9 -69 42 0
-39 -10 -69 42 0
-39 -9 -70 42 0
-39 -10 -70 42 0
-40 -9 -69 42 0
-40 -10 -69 42 0
-40 -9 -70 42 0
-40 -10 -70 41 0
-69 -39 -99 72 0
-69 -40 -99 72 0
-69 -39 -100 72 0
-69 -40 -100 72 0
-70 -39 -99 72 0
-70 -40 -99 72 0
-70 -39 -100 72 0
-70 -40 -100 71 0
-99 -69 -129 102 0
-99 -70 -129 102 0
-99 -69 -130 102 0
-99 -70 -130 102 0
-100 -69 -129 102 0
-100 -70 -129 102 0
-100 -69 -130 102 0
-100 -70 -130 101 0
-129 -99 -159 132 0
-129 -100 -159 132 0
-129 -99 -160 132 0
-129 -100 -160 132 0
-130 -99 -159 132 0
-130 -100 -159 132 0
-130 -99 -160 132 0
-130 -100 -160 131 0
-159 -129 162 0
-159 -130 162 0
-160 -129 162 0
-160 -130 161 0
-11 -41 14 0
-11 -42 14 0
-12 -41 14 0
-12 -42 13 0
-41 -11 -71 44 0
-41 -12 -71 44 0
-41 -11 -72 44 0
-41 -12 -72 44 0
-42 -11 -71 44 0
-42 -12 -71 44 0
-42 -11 -72 44 0
-42 -12 -72 43 0
-71 -41 -101 74 0
-71 -42 -101 74 0
-71 -41 -102 74 0
-71 -42 -102 74 0
-72 -41 -101 74 0
-72 -42 -101 74 0
-72 -41 -102 74 0
-72 -42 -102 73 0
-101 -71 -131 104 0
-101 -72 -131 104 0
-101 -71 -132 104 0
-101 -72 -132 104 0
-102 -71 -131 104 0
-102 -72 -131 104 0
-102 -71 -132 104 0
-102 -72 -132 103 0
-131 -101 -161 134 0
-131 -102 -161 134 0
-131 -101 -162 134 0
-131 -102 -162 134 0
-132 -101 -161 134 0
-132 -102 -161 134 0
-132 -101 -162 134 0
-132 -102 -162 133 0
-161 -131 164 0
-161 -132 164 0
-162 -131 164 0
-162 -132 163 0
-13 -43 16 0
-13 -44 16 0
-14 -43 16 0
-14 -44 15 0
-43 -13 -73 46 0
-43 -14 -73 46 0
-43 -13 -74 46 0
-43 -14 -74 46 0
-44 -13 -73 46 0
-44 -14 -73 46 0
-44 -13 -74 46 0
-44 -14 -74 45 0
-73 -43 -103 76 0
-73 -44 -103 76 0
-73 -43 -104 76 0
-73 -44 -104 76 0
-74 -43 -103 76 0
-74 -44 -103 76 0
-74 -43 -104 76 0
-74 -44 -104 75 0
-103 -73 -133 106 0
-103 -74 -133 106 0
-103 -73 -134 106 0
-103 -74 -134 106 0
-104 -73 -133 106 0
-104 -74 -133 106 0
-104 -73 -134 106 0
-104 -74 -134 105 0
-133 -103 -163 136 0
-133 -104 -163 136 0
-133 -103 -164 136 0
-133 -104 -164 136 0
-134 -103 -163 136 0
-134 -104 -163 136 0
-134 -103 -164 136 0
-134 -104 -164 135 0
-163 -133 166 0
-163 -134 166 0
-164 -133 166 0
-164 -134 165 0
-15 -45 18 0
-15 -46 18 0
-16 -45 18 0
-16 -46 17 0
-45 -15 -75 48 0
-45 -16 -75 48 0
-45 -15 -76 48 0
-45 -16 -76 48 0
-46 -15 -75 48 0
-46 -16 -75 48 0
-46 -15 -76 48 0
-46 -16 -76 47 0
-75 -45 -105 78 0
-75 -46 -105 78 0
-75 -45 -106 78 0
-75 -46 -106 78 0
-76 -45 -105 78 0
-76 -46 -105 78 0
-76 -45 -106 78 0
-76 -46 -106 77 0
-105 -75 -135 108 0
-105 -76 -135 108 0
-105 -75 -136 108 0
-105 -76 -136 108 0
-106 -75 -135 108 0
-106 -76 -135 108 0
-106 -75 -136 108 0
-106 -76 -136 107 0
-135 -105 -165 138 0
-135 -106 -165 138 0
-135 -105 -166 138 0
-135 -106 -166 138 0
-136 -105 -165 138 0
-136 -106 -165 138 0
-136 -105 -166 138 0
-136 -106 -166 137 0
-165 -135 168 0
-165 -136 168 0
-166 -135 168 0
-166 -136 167 0
-17 -47 20 0
-17 -48 20 0
-18 -47 20 0
-18 -48 19 0
-47 -17 -77 50 0
-47 -18 -77 50 0
-47 -17 -78 50 0
-47 -18 -78 50 0
-48 -17 -77 50 0
-48 -18 -77 50 0
-48 -17 -78 50 0
-48 -18 -78 49 0
-77 -47 -107 80 0
-77 -48 -107 80 0
-77 -47 -108 80 0
-77 -48 -108 80 0
-78 -47 -107 80 0
-78 -48 -107 80 0
-78 -47 -108 80 0
-78 -48 -108 79 0
-107 -77 -137 110 0
-107 -78 -137 110 0
-107 -77 -138 110 0
-107 -78 -138 110 0
-108 -77 -137 110 0
-108 -78 -137 110 0
-108 -77 -138 110 0
-108 -78 -138 109 0
-137 -107 -167 140 0
-137 -108 -167 140 0
-137 -107 -168 140 0
-137 -108 -168 140 0
-138 -107 -167 140 0
-138 -108 -167 140 0
-138 -107 -168 140 0
-138 -108 -168 139 0
-167 -137 170 0
-167 -138 170 0
-168 -137 170 0
-168 -138 169 0
-19 -49 22 0
-19 -50 22 0
-20 -49 22 0
-20 -50 21 0
-49 -19 -79 52 0
-49 -20 -79 52 0
-49 -19 -80 52 0
-49 -20 -80 52 0
-50 -19 -79 52 0
-50 -20 -79 52 0
-50 -19 -80 52 0
-50 -20 -80 51 0
-79 -49 -109 82 0
-79 -50 -109 82 0
-79 -49 -110 82 0
-79 -50 -110 82 0
-80 -49 -109 82 0
-80 -50 -109 82 0
-80 -49 -110 82 0
-80 -50 -110 81 0
-109 -79 -139 112 0
-109 -80 -139 112 0
-109 -79 -140 112 0
-109 -80 -140 112 0
-110 -79 -139 112 0
-110 -80 -139 112 0
-110 -79 -140 112 0
-110 -80 -140 111 0
-139 -109 -169 142 0
-139 -110 -169 142 0
-139 -109 -170 142 0
-139 -110 -170 142 0
-140 -109 -169 142 0
-140 -110 -169 142 0
-140 -109 -170 142 0
-140 -110 -170 141 0
-169 -139 172 0
-169 -140 172 0
-170 -139 172 0
-170 -140 171 0
-21 -51 24 0
-21 -52 24 0
-22 -51 24 0
-22 -52 23 0
-51 -21 -81 54 0
-51 -22 -81 54 0
-51 -21 -82 54 0
-51 -22 -82 54 0
-52 -21 -81 54 0
-52 -22 -81 54 0
-52 -21 -82 54 0
-52 -22 -82 53 0
-81 -51 -111 84 0
-81 -52 -111 84 0
-81 -51 -112 84 0
-81 -52 -112 84 0
-82 -51 -111 84 0
-82 -52 -111 84 0
-82 -51 -112 84 0
-82 -52 -112 83 0
-111 -81 -141 114 0
-111 -82 -141 114 0
-111 -81 -142 114 0
-111 -82 -142 114 0
-112 -81 -141 114 0
-112 -82 -141 114 0
-112 -81 -142 114 0
-112 -82 -142 113 0
-141 -111 -171 144 0
-141 -112 -171 144 0
-141 -111 -172 144 0
-141 -112 -172 144 0
-142 -111 -171 144 0
-142 -112 -171 144 0
-142 -111 -172 144 0
-142 -112 -172 143 0
-171 -141 174 0
-171 -142 174 0
-172 -141 174 0
-172 -142 173 0
-23 -53 26 0
-23 -54 26 0
-24 -53 26 0
-24 -54 25 0
-53 -23 -83 56 0
-53 -24 -83 56 0
-53 -23 -84 56 0
-53 -24 -84 56 0
-54 -23 -83 56 0
-54 -24 -83 56 0
-54 -23 -84 56 0
-54 -24 -84 55 0
-83 -53 -113 86 0
-83 -54 -113 86 0
-83 -53 -114 86 0
-83 -54 -114 86 0
-84 -53 -113 86 0
-84 -54 -113 86 0
-84 -53 -114 86 0
-84 -54 -114 85 0
-113 -83 -143 116 0
-113 -84 -143 116 0
-113 -83 -144 116 0
-113 -84 -144 116 0
-114 -83 -143 116 0
-114 -84 -143 116 0
-114 -83 -144 116 0
-114 -84 -144 115 0
-143 -113 -173 146 0
-143 -114 -173 146 0
-143 -113 -174 146 0
-143 -114 -174 146 0
-144 -113 -173 146 0
-144 -114 -173 146 0
-144 -113 -174 146 0
-144 -114 -174 145 0
-173 -143 176 0
-173 -144 176 0
-174 -143 176 0
-174 -144 175 0
-25 -55 28 0
-25 -56 28 0
-26 -55 28 0
-26 -56 27 0
-55 -25 -85 58 0
-55 -26 -85 58 0
-55 -25 -86 58 0
-55 -26 -86 58 0
-56 -25 -85 58 0
-56 -26 -85 58 0
-56 -25 -86 58 0
-56 -26 -86 57 0
-85 -55 -115 88 0
-85 -56 -115 88 0
-85 -55 -116 88 0
-85 -56 -116 88 0
-86 -55 -115 88 0
-86 -56 -115 88 0
-86 -55 -116 88 0
-86 -56 -116 87 0
-115 -85 -145 118 0
-115 -86 -145 118 0
-115 -85 -146 118 0
-115 -86 -146 118 0
-116 -85 -145 118 0
-116 -86 -145 118 0
-116 -85 -146 118 0
-116 -86 -146 117 0
-145 -115 -175 148 0
-145 -116 -175 148 0
-145 -115 -176 148 0
-145 -116 -176 148 0
-146 -115 -175 148 0
-146 -116 -175 148 0
-146 -115 -176 148 0
-146 -116 -176 147 0
-175 -145 178 0
-175 -146 178 0
-176 -145 178 0
-176 -146 177 0
-27 -57 30 0
-27 -58 30 0
-28 -57 30 0
-28 -58 29 0
-57 -27 -87 60 0
-57 -28 -87 60 0
-57 -27 -88 60 0
-57 -28 -88 60 0
-58 -27 -87 60 0
-58 -28 -87 60 0
-58 -27 -88 60 0
-58 -28 -88 59 0
-87 -57 -117 90 0
-87 -58 -117 90 0
-87 -57 -118 90 0
-87 -58 -118 90 0
-88 -57 -117 90 0
-88 -58 -117 90 0
-88 -57 -118 90 0
-88 -58 -118 89 0
-117 -87 -147 120 0
-117 -88 -147 120 0
-117 -87 -148 120 0
-117 -88 -148 120 0
-118 -87 -147 120 0
-118 -88 -147 120 0
-118 -87 -148 120 0
-118 -88 -148 119 0
-147 -117 -177 150 0
-147 -118 -177 150 0
-147 -117 -178 150 0
-147 -118 -178 150 0
-148 -117 -177 150 0
-148 -118 -177 150 0
-148 -117 -178 150 0
-148 -118 -178 149 0
-177 -147 180 0
-177 -148 180 0
-178 -147 180 0
-178 -148 179 0
182 183 184 185 186 187 188 189 190 191 192 193 194 195 0
198 199 -182 0
1 -198 0
3 -198 0
2 -199 0
4 -199 0
228 229 -182 0
31 -228 0
33 -228 0
32 -229 0
34 -229 0
258 259 -182 0
61 -258 0
63 -258 0
62 -259 0
64 -259 0
288 289 -182 0
91 -288 0
93 -288 0
92 -289 0
94 -289 0
318 319 -182 0
121 -318 0
123 -318 0
122 -319 0
124 -319 0
348 349 -182 0
151 -348 0
153 -348 0
152 -349 0
154 -349 0
200 201 -183 0
1 -200 0
5 -200 0
2 -201 0
6 -201 0
230 231 -183 0
31 -230 0
35 -230 0
32 -231 0
36 -231 0
260 261 -183 0
61 -260 0
65 -260 0
62 -261 0
66 -261 0
290 291 -183 0
91 -290 0
95 -290 0
92 -291 0
96 -291 0
320 321 -183 0
121 -320 0
125 -320 0
122 -321 0
126 -321 0
350 351 -183 0
151 -350 0
155 -350 0
152 -351 0
156 -351 0
202 203 -184 0
1 -202 0
7 -202 0
2 -203 0
8 -203 0
232 233 -184 0
31 -232 0
37 -232 0
32 -233 0
38 -233 0
262 263 -184 0
61 -262 0
67 -262 0
62 -263 0
68 -263 0
292 293 -184 0
91 -292 0
97 -292 0
92 -293 0
98 -293 0
322 323 -184 0
121 -322 0
127 -322 0
122 -323 0
128 -323 0
352 353 -184 0
151 -352 0
157 -352 0
152 -353 0
158 -353 0
204 205 -185 0
1 -204 0
9 -204 0
2 -205 0
10 -205 0
234 235 -185 0
31 -234 0
39 -234 0
32 -235 0
40 -235 0
264 265 -185 0
61 -264 0
69 -264 0
62 -265 0
70 -265 0
294 295 -185 0
91 -294 0
99 -294 0
92 -295 0
100 -295 0
324 325 -185 0
121 -324 0
129 -324 0
122 -325 0
130 -325 0
354 355 -185 0
151 -354 0
159 -354 0
152 -355 0
160 -355 0
206 207 -186 0
1 -206 0
11 -206 0
2 -207 0
12 -207 0
236 237 -186 0
31 -236 0
41 -236 0
32 -237 0
42 -237 0
266 267 -186 0
61 -266 0
71 -266 0
62 -267 0
72 -267 0
296 297 -186 0
91 -296 0
101 -296 0
92 -297 0
102 -297 0
326 327 -186 0
121 -326 0
131 -326 0
122 -327 0
132 -327 0
356 357 -186 0
151 -356 0
161 -356 0
152 -357 0
162 -357 0
208 209 -187 0
1 -208 0
13 -208 0
2 -209 0
14 -209 0
238 239 -187 0
31 -238 0
43 -238 0
32 -239 0
44 -239 0
268 269 -187 0
61 -268 0
73 -268 0
62 -269 0
74 -269 0
298 299 -187 0
91 -298 0
103 -298 0
92 -299 0
104 -299 0
328 329 -187 0
121 -328 0
133 -328 0
122 -329 0
134 -329 0
358 359 -187 0
151 -358 0
163 -358 0
152 -359 0
164 -359 0
210 211 -188 0
1 -210 0
15 -210 0
2 -211 0
16 -211 0
240 241 -188 0
31 -240 0
45 -240 0
32 -241 0
46 -241 0
270 271 -188 0
61 -270 0
75 -270 0
62 -271 0
76 -271 0
300 301 -188 0
91 -300 0
105 -300 0
92 -301 0
106 -301 0
330 331 -188 0
121 -330 0
135 -330 0
122 -331 0
136 -331 0
360 361 -188 0
151 -360 0
165 -360 0
152 -361 0
166 -361 0
212 213 -189 0
1 -212 0
17 -212 0
2 -213 0
18 -213 0
242 243 -189 0
31 -242 0
47 -242 0
32 -243 0
48 -243 0
272 273 -189 0
61 -272 0
77 -272 0
62 -273 0
78 -273 0
302 303 -189 0
91 -302 0
107 -302 0
92 -303 0
108 -303 0
332 333 -189 0
121 -332 0
137 -332 0
122 -333 0
138 -333 0
362 363 -189 0
151 -362 0
167 -362 0
152 -363 0
168 -363 0
214 215 -190 0
1 -214 0
19 -214 0
2 -215 0
20 -215 0
244 245 -190 0
31 -244 0
49 -244 0
32 -245 0
50 -245 0
274 275 -190 0
61 -274 0
79 -274 0
62 -275 0
80 -275 0
304 305 -190 0
91 -304 0
109 -304 0
92 -305 0
110 -305 0
334 335 -190 0
121 -334 0
139 -334 0
122 -335 0
140 -335 0
364 365 -190 0
151 -364 0
169 -364 0
152 -365 0
170 -365 0
216 217 -191 0
1 -216 0
21 -216 0
2 -217 0
22 -217 0
246 247 -191 0
31 -246 0
51 -246 0
32 -247 0
52 -247 0
276 277 -191 0
61 -276 0
81 -276 0
62 -277 0
82 -277 0
306 307 -191 0
91 -306 0
111 -306 0
92 -307 0
112 -307 0
336 337 -191 0
121 -336 0
141 -336 0
122 -337 0
142 -337 0
366 367 -191 0
151 -366 0
171 -366 0
152 -367 0
172 -367 0
218 219 -192 0
1 -218 0
23 -218 0
2 -219 0
24 -219 0
248 249 -192 0
31 -248 0
53 -248 0
32 -249 0
54 -249 0
278 279 -192 0
61 -278 0
83 -278 0
62 -279 0
84 -279 0
308 309 -192 0
91 -308 0
113 -308 0
92 -309 0
114 -309 0
338 339 -192 0
121 -338 0
143 -338 0
122 -339 0
144 -339 0
368 369 -192 0
151 -368 0
173 -368 0
152 -369 0
174 -369 0
220 221 -193 0
1 -220 0
25 -220 0
2 -221 0
26 -221 0
250 251 -193 0
31 -250 0
55 -250 0
32 -251 0
56 -251 0
280 281 -193 0
61 -280 0
85 -280 0
62 -281 0
86 -281 0
310 311 -193 0
91 -310 0
115 -310 0
92 -311 0
116 -311 0
340 341 -193 0
121 -340 0
145 -340 0
122 -341 0
146 -341 0
370 371 -193 0
151 -370 0
175 -370 0
152 -371 0
176 -371 0
222 223 -194 0
1 -222 0
27 -222 0
2 -223 0
28 -223 0
252 253 -194 0
31 -252 0
57 -252 0
32 -253 0
58 -253 0
282 283 -194 0
61 -282 0
87 -282 0
62 -283 0
88 -283 0
312 313 -194 0
91 -312 0
117 -312 0
92 -313 0
118 -313 0
342 343 -194 0
121 -342 0
147 -342 0
122 -343 0
148 -343 0
372 373 -194 0
151 -372 0
177 -372 0
152 -373 0
178 -373 0
224 225 -195 0
1 -224 0
29 -224 0
2 -225 0
30 -225 0
254 255 -195 0
31 -254 0
59 -254 0
32 -255 0
60 -255 0
284 285 -195 0
61 -284 0
89 -284 0
62 -285 0
90 -285 0
314 315 -195 0
91 -314 0
119 -314 0
92 -315 0
120 -315 0
344 345 -195 0
121 -344 0
149 -344 0
122 -345 0
150 -345 0
374 375 -195 0
151 -374 0
179 -374 0
152 -375 0
180 -375 0
-1 -31 -61 -91 -121 -151 0
-2 -32 -62 -92 -122 -152 0
